66
[[-1, 0, 0, 0, 0, 0, 0, 0, 23642, 21418, 0, 0, 0, 0, 0, 31266, 42038, 21032, 0, 32366, 0, 42562, 0, 0, 26749, 27568, 0, 0, 0, 45896, 0, 0, 0, 0, 12866, 0, 0, 0, 0, 0, 28567, 0, 0, 0, 0, 0, 0, 0, 0, 40893, 0, 0, 0, 0, 40701, 0, 17124, 0, 43523, 0, 6871, 0, 0, 0, 0, 0],[0, -1, 0, 32847, 44877, 0, 22409, 0, 0, 0, 45957, 0, 0, 0, 0, 0, 0, 0, 0, 27126, 0, 0, 0, 0, 0, 0, 0, 0, 26593, 0, 0, 0, 0, 0, 0, 36181, 0, 0, 0, 33435, 0, 0, 0, 37685, 24894, 42928, 0, 0, 0, 0, 30624, 0, 29795, 0, 29707, 0, 0, 27971, 27244, 0, 0, 0, 0, 25702, 0, 0],[0, 0, -1, 0, 0, 0, 36626, 28002, 0, 41936, 0, 0, 0, 0, 0, 0, 0, 22723, 0, 0, 35038, 0, 0, 0, 0, 30332, 5737, 0, 0, 0, 0, 0, 0, 45978, 0, 0, 0, 0, 0, 0, 44765, 0, 0, 0, 0, 0, 0, 15974, 40540, 36364, 0, 0, 0, 0, 0, 0, 0, 40713, 0, 0, 0, 42828, 0, 24394, 0, 36902],[0, 32847, 0, -1, 41306, 32491, 0, 38031, 28280, 0, 0, 0, 0, 38761, 0, 0, 0, 0, 45999, 0, 19139, 36614, 0, 0, 0, 0, 0, 0, 0, 26769, 0, 0, 0, 0, 0, 0, 0, 0, 40244, 0, 0, 0, 41718, 0, 0, 0, 28064, 0, 0, 0, 0, 0, 0, 0, 0, 0, 0, 0, 0, 28736, 0, 21365, 0, 0, 0, 0],[0, 44877, 0, 41306, -1, 42272, 38882, 28201, 0, 0, 0, 0, 0, 0, 31266, 0, 0, 0, 0, 2179, 0, 28938, 0, 26419, 0, 0, 4212, 0, 0, 0, 43561, 0, 0, 0, 0, 39421, 8685, 0, 0, 0, 0, 0, 0, 0, 0, 0, 0, 36685, 0, 0, 0, 0, 35481, 0, 0, 0, 0, 0, 0, 0, 0, 0, 0, 0, 18190, 0],[0, 0, 0, 32491, 42272, -1, 0, 0, 41179, 42288, 0, 0, 34270, 0, 0, 0, 0, 23760, 0, 0, 40032, 44861, 0, 0, 0, 0, 0, 0, 31998, 0, 0, 0, 0, 0, 0, 8055, 0, 46114, 0, 0, 41249, 0, 26365, 0, 0, 24650, 0, 0, 0, 0, 0, 0, 32954, 0, 9771, 21910, 0, 0, 0, 0, 26446, 0, 0, 0, 40468, 41245],[0, 22409, 36626, 0, 38882, 0, -1, 0, 0, 0, 0, 0, 28202, 23480, 0, 28224, 0, 0, 18519, 0, 0, 0, 0, 0, 0, 0, 42613, 0, 593546042, 43436, 0, 0, 0, 0, 0, 0, 0, 0, 34352, 0, 0, 0, 0, 44313, 0, 24730, 0, 0, 45847, 38541, 0, 0, 30713, 0, 32420, 31120, 0, 0, 36699, 0, 0, 0, 0, 0, 0, 0],[0, 0, 28002, 38031, 28201, 0, 0, -1, 0, 0, 0, 0, 0, 30263, 0, 0, 0, 0, 0, 36070, 0, 0, 28648, 0, 0, 0, 11213, 0, 0, 0, 0, 0, 0, 0, 0, 0, 0, 0, 20946, 0, 0, 45154, 0, 44015, 0, 0, 0, 0, 0, 29044, 0, 18361, 40209, 0, 0, 33320, 0, 0, 32983, 0, 0, 17633, 0, 5356, 0, 0],[23642, 0, 0, 28280, 0, 41179, 0, 0, -1, 0, 23336, 0, 0, 0, 0, 0, 0, 0, 26891, 0, 0, 0, 0, 45190, 0, 36723, 0, 0, 0, 0, 34805, 0, 0, 0, 0, 40218, 22835, 0, 0, 0, 0, 0, 0, 29685, 0, 0, 0, 0, 0, 0, 0, 0, 0, 0, 46106, 0, 0, 0, 19264, 0, 0, 0, 0, 0, 0, 43291],[21418, 0, 41936, 0, 0, 42288, 0, 0, 0, -1, 0, 0, 0, 43552, 24373, 38710, 0, 0, 0, 0, 0, 0, 0, 0, 0, 36242, 0, 0, 0, 0, 0, 0, 0, 31813, 0, 40025, 0, 43892, 0, 33530, 0, 45178, 0, 33168, 0, 44952, 28187, 0, 0, 0, 0, 0, 0, 0, 21009, 0, 0, 0, 0, 0, 0, 0, 0, 0, 0, 0],[0, 45957, 0, 0, 0, 0, 0, 0, 23336, 0, -1, 0, 0, 27229, 0, 0, 35664, 0, 0, 0, 0, 0, 0, 0, 19499, 0, 0, 0, 0, 0, 0, 0, 0, 0, 0, 0, 0, 0, 0, 0, 0, 0, 38054, 22263, 0, 33974, 22333, 0, 33971, 0, 18504, 38974, 0, 0, 0, 35441, 0, 33047, 0, 0, 0, 42005, 0, 0, 0, 0],[0, 0, 0, 0, 0, 0, 0, 0, 0, 0, 0, -1, 0, 0, 0, 0, 0, 27484, 26246, 32710, 0, 0, 45475, 0, 0, 0, 0, 0, 0, 0, 0, 0, 0, 23687, 0, 0, 0, 0, 0, 0, 0, 0, 39706, 0, 0, 0, 0, 0, 0, 40992, 44068, 43895, 0, 0, 0, 17870, 0, 40562, 0, 0, 45944, 0, 30629, 33406, 32925, 0],[0, 0, 0, 0, 0, 34270, 28202, 0, 0, 0, 0, 0, -1, 0, 0, 0, 0, 0, 0, 22550, 0, 17742, 0, 33040, 17121, 27981, 0, 0, 0, 45756, 0, 0, 0, 0, 43905, 0, 0, 0, 0, 29936, 42705, 0, 0, 0, 0, 0, 0, 17509, 0, 44244, 0, 46246, 0, 0, 31946, 0, 0, 45828, 0, 0, 0, 0, 34997, 0, 0, 0],[0, 0, 0, 38761, 0, 0, 23480, 30263, 0, 43552, 27229, 0, 0, -1, 2797, 26777, 0, 0, 0, 0, 0, 25487, 0, 0, 0, 31006, 38439, 0, 18424, 0, 35004, 27825, 0, 0, 0, 20557, 0, 0, 0, 0, 0, 0, 0, 6342, 0, 42892, 0, 28540, 0, 37236, 0, 40258, 44108, 17701, 0, 0, 0, 0, 0, 0, 20798, 39857, 0, 0, 0, 0],[0, 0, 0, 0, 31266, 0, 0, 0, 0, 24373, 0, 0, 0, 2797, -1, 36833, 0, 29472, 27229, 30201, 44443, 30971, 0, 0, 0, 0, 0, 0, 0, 38056, 0, 800689698, 0, 31620, 43646, 43327, 0, 0, 0, 0, 0, 0, 28418, 0, 0, 0, 0, 39976, 0, 0, 6793, 34813, 0, 0, 0, 0, 0, 0, 0, 9810, 45314, 26036, 0, 20978, 44982, 24381],[31266, 0, 0, 0, 0, 0, 28224, 0, 0, 38710, 0, 0, 0, 26777, 36833, -1, 34707, 36271, 0, 0, 45461, 0, 43302, 0, 0, 0, 0, 37021, 0, 0, 0, 0, 0, 0, 31612, 0, 21293, 0, 0, 0, 0, 0, 45665, 0, 0, 0, 34982, 0, 0, 0, 0, 0, 0, 0, 12232, 0, 0, 0, 0, 0, 0, 0, 0, 0, 0, 0],[42038, 0, 0, 0, 0, 0, 0, 0, 0, 0, 35664, 0, 0, 0, 0, 34707, -1, 43274, 0, 38222, 0, 41182, 0, 0, 0, 0, 0, 0, 0, 0, 0, 0, 0, 0, 0, 0, 0, 0, 0, 0, 0, 0, 0, 0, 0, 0, 0, 0, 0, 0, 0, 0, 0, 0, 0, 0, 0, 23914, 0, 0, 0, 0, 0, 0, 0, 0],[21032, 0, 22723, 0, 0, 23760, 0, 0, 0, 0, 0, 27484, 0, 0, 29472, 36271, 43274, -1, 0, 11740, 0, 41725, 0, 39768, 0, 0, 0, 0, 0, 38981, 0, 8785, 39284, 0, 0, 0, 0, 18749, 33508, 0, 33598, 0, 0, 0, 32149, 0, 0, 0, 0, 0, 39985, 0, 0, 34732, 43368, 0, 0, 43881, 0, 0, 0, 0, 0, 0, 8621, 0],[0, 0, 0, 45999, 0, 0, 18519, 0, 26891, 0, 0, 26246, 0, 0, 27229, 0, 0, 0, -1, 0, 24369, 0, 0, 0, 0, 0, 0, 0, 15205, 2419, 5799, 0, 0, 0, 0, 0, 0, 0, 38840, 0, 28768, 0, 22317, 0, 0, 43281, 24796, 0, 29651, 17154, 39396, 0, 0, 0, 0, 0, 32821, 11839, 0, 0, 0, 22526, 0, 0, 0, 0],[32366, 27126, 0, 0, 2179, 0, 0, 36070, 0, 0, 0, 32710, 22550, 0, 30201, 0, 38222, 11740, 0, -1, 0, 0, 41725, 0, 0, 0, 35472, 44336, 0, 0, 20047, 0, 1446050944, 0, 16814, 0, 0, 0, 0, 0, 0, 836703493, 30972, 0, 0, 44749, 19066, 0, 0, 0, 0, 0, 15609, 0, 39807, 0, 0, 0, 0, 39358, 0, 0, 0, 45244, 38641, 0],[0, 0, 35038, 19139, 0, 40032, 0, 0, 0, 0, 0, 0, 0, 0, 44443, 45461, 0, 0, 24369, 0, -1, 0, 0, 0, 32880, 42740, 0, 0, 0, 0, 0, 0, 0, 0, 0, 0, 0, 0, 28366, 0, 0, 0, 0, 38042, 0, 0, 0, 0, 16705, 0, 0, 0, 0, 0, 0, 1675473917, 32878, 0, 27980, 0, 0, 0, 0, 7122, 0, 0],[42562, 0, 0, 36614, 28938, 44861, 0, 0, 0, 0, 0, 0, 17742, 25487, 30971, 0, 41182, 41725, 0, 0, 0, -1, 0, 0, 23357, 0, 0, 0, 0, 0, 0, 0, 0, 0, 0, 31098, 0, 34970, 0, 23548, 0, 0, 0, 0, 0, 0, 0, 0, 12950, 0, 0, 0, 0, 16077, 0, 0, 0, 0, 0, 0, 16675, 0, 0, 0, 0, 46145],[0, 0, 0, 0, 0, 0, 0, 28648, 0, 0, 0, 45475, 0, 0, 0, 43302, 0, 0, 0, 41725, 0, 0, -1, 45445, 0, 0, 0, 0, 0, 31568, 0, 45093, 0, 0, 0, 27718, 0, 0, 0, 17395, 0, 0, 42467, 0, 0, 0, 0, 0, 0, 41161, 0, 23769, 0, 26710, 31037, 0, 0, 0, 0, 42627, 31602, 44989, 0, 10246, 0, 0],[0, 0, 0, 0, 26419, 0, 0, 0, 45190, 0, 0, 0, 33040, 0, 0, 0, 0, 39768, 0, 0, 0, 0, 45445, -1, 0, 45956, 0, 0, 0, 38622, 0, 0, 0, 0, 13402, 0, 0, 37687, 0, 0, 0, 0, 0, 29308, 0, 0, 0, 39656, 0, 0, 0, 0, 0, 0, 0, 0, 0, 0, 0, 0, 0, 0, 19794, 0, 0, 16244],[26749, 0, 0, 0, 0, 0, 0, 0, 0, 0, 19499, 0, 17121, 0, 0, 0, 0, 0, 0, 0, 32880, 23357, 0, 0, -1, 0, 45484, 0, 0, 0, 0, 0, 28972, 0, 0, 0, 0, 0, 0, 0, 0, 16107, 0, 32700, 0, 18673, 0, 0, 0, 0, 28631, 37587, 0, 42025, 30262, 0, 0, 24136, 0, 0, 0, 0, 0, 0, 36682, 0],[27568, 0, 30332, 0, 0, 0, 0, 0, 36723, 36242, 0, 0, 27981, 31006, 0, 0, 0, 0, 0, 0, 42740, 0, 0, 45956, 0, -1, 0, 0, 0, 0, 0, 0, 0, 31964, 0, 4279, 0, 22383, 31617, 44870, 0, 0, 0, 0, 17369, 0, 41495, 0, 0, 0, 0, 0, 0, 0, 34632, 0, 37517, 0, 0, 0, 39992, 22151, 0, 0, 0, 44894],[0, 0, 5737, 0, 4212, 0, 42613, 11213, 0, 0, 0, 0, 0, 38439, 0, 0, 0, 0, 0, 35472, 0, 0, 0, 0, 45484, 0, -1, 0, 0, 0, 41421, 0, 0, 17592, 42317, 37398, 0, 0, 0, 0, 0, 0, 0, 0, 41731, 0, 18951, 0, 0, 0, 0, 0, 0, 0, 0, 31199, 0, 0, 0, 0, 0, 0, 5332, 0, 39385, 0],[0, 0, 0, 0, 0, 0, 0, 0, 0, 0, 0, 0, 0, 0, 0, 37021, 0, 0, 0, 44336, 0, 0, 0, 0, 0, 0, 0, -1, 0, 0, 0, 0, 34490, 0, 0, 0, 0, 0, 0, 0, 0, 0, 0, 0, 0, 16275, 0, 0, 22646, 17698, 0, 0, 0, 0, 22712, 36370, 0, 0, 0, 0, 0, 0, 0, 0, 0, 0],[0, 26593, 0, 0, 0, 31998, 593546042, 0, 0, 0, 0, 0, 0, 18424, 0, 0, 0, 0, 15205, 0, 0, 0, 0, 0, 0, 0, 0, 0, -1, 32896, 41777, 0, 43600, 0, 0, 0, 38849, 42627, 0, 0, 0, 0, 24598, 0, 22139, 0, 0, 0, 0, 0, 0, 0, 0, 34050, 0, 36548, 0, 39539, 37672, 0, 0, 11478, 0, 0, 0, 0],[45896, 0, 0, 26769, 0, 0, 43436, 0, 0, 0, 0, 0, 45756, 0, 38056, 0, 0, 38981, 2419, 0, 0, 0, 31568, 38622, 0, 0, 0, 0, 32896, -1, 0, 0, 0, 25937, 0, 0, 0, 0, 0, 0, 39264, 18656, 0, 36872, 0, 0, 0, 33714, 0, 0, 44624, 35138, 36776, 0, 0, 0, 0, 0, 32470, 0, 0, 39954, 0, 0, 0, 0],[0, 0, 0, 0, 43561, 0, 0, 0, 34805, 0, 0, 0, 0, 35004, 0, 0, 0, 0, 5799, 20047, 0, 0, 0, 0, 0, 0, 41421, 0, 41777, 0, -1, 15624, 0, 42992, 0, 0, 0, 0, 0, 0, 34688, 0, 0, 0, 0, 3593, 0, 33060, 0, 15461, 0, 0, 0, 0, 0, 0, 0, 0, 41991, 0, 0, 0, 0, 0, 0, 33376],[0, 0, 0, 0, 0, 0, 0, 0, 0, 0, 0, 0, 0, 27825, 800689698, 0, 0, 8785, 0, 0, 0, 0, 45093, 0, 0, 0, 0, 0, 0, 0, 15624, -1, 32216, 0, 0, 0, 0, 0, 0, 0, 15820, 37451, 0, 0, 0, 0, 0, 0, 35388, 0, 42053, 0, 0, 0, 0, 0, 0, 0, 0, 41849, 0, 32480, 0, 0, 31655, 0],[0, 0, 0, 0, 0, 0, 0, 0, 0, 0, 0, 0, 0, 0, 0, 0, 0, 39284, 0, 1446050944, 0, 0, 0, 0, 28972, 0, 0, 34490, 43600, 0, 0, 32216, -1, 0, 0, 0, 0, 0, 11407, 0, 0, 0, 0, 0, 0, 45385, 39751, 0, 0, 0, 0, 0, 0, 0, 0, 45421, 42932, 23843, 42761, 0, 0, 0, 0, 0, 0, 19983],[0, 0, 45978, 0, 0, 0, 0, 0, 0, 31813, 0, 23687, 0, 0, 31620, 0, 0, 0, 0, 0, 0, 0, 0, 0, 0, 31964, 17592, 0, 0, 25937, 42992, 0, 0, -1, 15734, 0, 29749, 0, 0, 0, 35261, 13860, 0, 0, 38955, 0, 0, 0, 0, 0, 0, 0, 0, 0, 0, 0, 0, 20282, 20459, 0, 35291, 0, 0, 40503, 0, 0],[12866, 0, 0, 0, 0, 0, 0, 0, 0, 0, 0, 0, 43905, 0, 43646, 31612, 0, 0, 0, 16814, 0, 0, 0, 13402, 0, 0, 42317, 0, 0, 0, 0, 0, 0, 15734, -1, 0, 0, 0, 0, 45070, 0, 18592, 0, 0, 0, 0, 32414, 0, 0, 0, 0, 23829, 0, 0, 40306, 0, 46108, 0, 0, 0, 42982, 0, 0, 0, 0, 0],[0, 36181, 0, 0, 39421, 8055, 0, 0, 40218, 40025, 0, 0, 0, 20557, 43327, 0, 0, 0, 0, 0, 0, 31098, 27718, 0, 0, 4279, 37398, 0, 0, 0, 0, 0, 0, 0, 0, -1, 0, 39146, 0, 0, 0, 23967, 26974, 0, 0, 0, 44730, 0, 0, 0, 0, 0, 37927, 0, 0, 0, 0, 0, 0, 0, 38266, 0, 0, 0, 0, 36071],[0, 0, 0, 0, 8685, 0, 0, 0, 22835, 0, 0, 0, 0, 0, 0, 21293, 0, 0, 0, 0, 0, 0, 0, 0, 0, 0, 0, 0, 38849, 0, 0, 0, 0, 29749, 0, 0, -1, 0, 0, 0, 0, 0, 0, 0, 0, 0, 0, 0, 0, 0, 0, 45134, 0, 0, 0, 0, 0, 0, 0, 0, 0, 0, 0, 0, 0, 0],[0, 0, 0, 0, 0, 46114, 0, 0, 0, 43892, 0, 0, 0, 0, 0, 0, 0, 18749, 0, 0, 0, 34970, 0, 37687, 0, 22383, 0, 0, 42627, 0, 0, 0, 0, 0, 0, 39146, 0, -1, 0, 0, 0, 0, 0, 0, 0, 0, 0, 40655, 0, 38999, 0, 32852, 0, 43611, 33544, 0, 0, 23056, 0, 0, 0, 0, 0, 0, 0, 0],[0, 0, 0, 40244, 0, 0, 34352, 20946, 0, 0, 0, 0, 0, 0, 0, 0, 0, 33508, 38840, 0, 28366, 0, 0, 0, 0, 31617, 0, 0, 0, 0, 0, 0, 11407, 0, 0, 0, 0, 0, -1, 0, 0, 0, 0, 0, 0, 0, 14061, 0, 0, 0, 0, 31600, 0, 0, 26575, 0, 0, 0, 20669, 0, 0, 20575, 13743, 36546, 38911, 0],[0, 33435, 0, 0, 0, 0, 0, 0, 0, 33530, 0, 0, 29936, 0, 0, 0, 0, 0, 0, 0, 0, 23548, 17395, 0, 0, 44870, 0, 0, 0, 0, 0, 0, 0, 0, 45070, 0, 0, 0, 0, -1, 0, 32236, 0, 0, 45040, 0, 0, 0, 0, 0, 36760, 0, 0, 0, 42645, 40838, 32611, 0, 0, 0, 0, 0, 39490, 0, 0, 0],[28567, 0, 44765, 0, 0, 41249, 0, 0, 0, 0, 0, 0, 42705, 0, 0, 0, 0, 33598, 28768, 0, 0, 0, 0, 0, 0, 0, 0, 0, 0, 39264, 34688, 15820, 0, 35261, 0, 0, 0, 0, 0, 0, -1, 0, 0, 0, 0, 0, 0, 0, 40460, 0, 0, 32075, 0, 0, 0, 0, 0, 0, 0, 0, 0, 0, 0, 0, 24464, 0],[0, 0, 0, 0, 0, 0, 0, 45154, 0, 45178, 0, 0, 0, 0, 0, 0, 0, 0, 0, 836703493, 0, 0, 0, 0, 16107, 0, 0, 0, 0, 18656, 0, 37451, 0, 13860, 18592, 23967, 0, 0, 0, 32236, 0, -1, 0, 0, 0, 0, 45312, 0, 0, 0, 0, 0, 0, 0, 0, 31940, 0, 0, 0, 0, 31218, 27932, 0, 24521, 0, 0],[0, 0, 0, 41718, 0, 26365, 0, 0, 0, 0, 38054, 39706, 0, 0, 28418, 45665, 0, 0, 22317, 30972, 0, 0, 42467, 0, 0, 0, 0, 0, 24598, 0, 0, 0, 0, 0, 0, 26974, 0, 0, 0, 0, 0, 0, -1, 0, 37561, 0, 0, 30919, 45457, 37825, 0, 0, 0, 0, 35417, 27207, 0, 0, 45511, 0, 0, 0, 0, 10671, 0, 0],[0, 37685, 0, 0, 0, 0, 44313, 44015, 29685, 33168, 22263, 0, 0, 6342, 0, 0, 0, 0, 0, 0, 38042, 0, 0, 29308, 32700, 0, 0, 0, 0, 36872, 0, 0, 0, 0, 0, 0, 0, 0, 0, 0, 0, 0, 0, -1, 0, 0, 25305, 0, 0, 0, 16476, 0, 0, 1050, 0, 38639, 0, 40943, 0, 0, 0, 33215, 0, 0, 0, 31344],[0, 24894, 0, 0, 0, 0, 0, 0, 0, 0, 0, 0, 0, 0, 0, 0, 0, 32149, 0, 0, 0, 0, 0, 0, 0, 17369, 41731, 0, 22139, 0, 0, 0, 0, 38955, 0, 0, 0, 0, 0, 45040, 0, 0, 37561, 0, -1, 0, 0, 41851, 0, 0, 0, 33294, 0, 29485, 0, 39163, 0, 22875, 0, 45404, 0, 0, 0, 25792, 0, 11590],[0, 42928, 0, 0, 0, 24650, 24730, 0, 0, 44952, 33974, 0, 0, 42892, 0, 0, 0, 0, 43281, 44749, 0, 0, 0, 0, 18673, 0, 0, 16275, 0, 0, 3593, 0, 45385, 0, 0, 0, 0, 0, 0, 0, 0, 0, 0, 0, 0, -1, 37251, 24221, 0, 0, 0, 0, 45250, 0, 0, 39841, 0, 0, 0, 0, 0, 0, 42812, 0, 40897, 0],[0, 0, 0, 28064, 0, 0, 0, 0, 0, 28187, 22333, 0, 0, 0, 0, 34982, 0, 0, 24796, 19066, 0, 0, 0, 0, 0, 41495, 18951, 0, 0, 0, 0, 0, 39751, 0, 32414, 44730, 0, 0, 14061, 0, 0, 45312, 0, 25305, 0, 37251, -1, 0, 0, 0, 0, 0, 43136, 0, 0, 0, 0, 40099, 0, 0, 0, 0, 0, 0, 0, 26809],[0, 0, 15974, 0, 36685, 0, 0, 0, 0, 0, 0, 0, 17509, 28540, 39976, 0, 0, 0, 0, 0, 0, 0, 0, 39656, 0, 0, 0, 0, 0, 33714, 33060, 0, 0, 0, 0, 0, 0, 40655, 0, 0, 0, 0, 30919, 0, 41851, 24221, 0, -1, 43642, 0, 0, 0, 0, 20034, 0, 0, 0, 0, 0, 0, 0, 0, 0, 0, 33567, 0],[0, 0, 40540, 0, 0, 0, 45847, 0, 0, 0, 33971, 0, 0, 0, 0, 0, 0, 0, 29651, 0, 16705, 12950, 0, 0, 0, 0, 0, 22646, 0, 0, 0, 35388, 0, 0, 0, 0, 0, 0, 0, 0, 40460, 0, 45457, 0, 0, 0, 0, 43642, -1, 0, 0, 0, 0, 0, 0, 0, 0, 0, 0, 0, 28115, 0, 0, 0, 0, 25008],[40893, 0, 36364, 0, 0, 0, 38541, 29044, 0, 0, 0, 40992, 44244, 37236, 0, 0, 0, 0, 17154, 0, 0, 0, 41161, 0, 0, 0, 0, 17698, 0, 0, 15461, 0, 0, 0, 0, 0, 0, 38999, 0, 0, 0, 0, 37825, 0, 0, 0, 0, 0, 0, -1, 0, 36925, 0, 0, 0, 37119, 17423, 15698, 26142, 45806, 0, 0, 0, 28462, 0, 0],[0, 30624, 0, 0, 0, 0, 0, 0, 0, 0, 18504, 44068, 0, 0, 6793, 0, 0, 39985, 39396, 0, 0, 0, 0, 0, 28631, 0, 0, 0, 0, 44624, 0, 42053, 0, 0, 0, 0, 0, 0, 0, 36760, 0, 0, 0, 16476, 0, 0, 0, 0, 0, 0, -1, 0, 35976, 0, 0, 0, 40000, 0, 0, 43118, 0, 0, 0, 0, 0, 20171],[0, 0, 0, 0, 0, 0, 0, 18361, 0, 0, 38974, 43895, 46246, 40258, 34813, 0, 0, 0, 0, 0, 0, 0, 23769, 0, 37587, 0, 0, 0, 0, 35138, 0, 0, 0, 0, 23829, 0, 45134, 32852, 31600, 0, 32075, 0, 0, 0, 33294, 0, 0, 0, 0, 36925, 0, -1, 0, 0, 16403, 0, 0, 0, 0, 0, 0, 0, 0, 0, 0, 40349],[0, 29795, 0, 0, 35481, 32954, 30713, 40209, 0, 0, 0, 0, 0, 44108, 0, 0, 0, 0, 0, 15609, 0, 0, 0, 0, 0, 0, 0, 0, 0, 36776, 0, 0, 0, 0, 0, 37927, 0, 0, 0, 0, 0, 0, 0, 0, 0, 45250, 43136, 0, 0, 0, 35976, 0, -1, 0, 45894, 0, 0, 0, 0, 0, 0, 45071, 36420, 0, 28074, 34311],[0, 0, 0, 0, 0, 0, 0, 0, 0, 0, 0, 0, 0, 17701, 0, 0, 0, 34732, 0, 0, 0, 16077, 26710, 0, 42025, 0, 0, 0, 34050, 0, 0, 0, 0, 0, 0, 0, 0, 43611, 0, 0, 0, 0, 0, 1050, 29485, 0, 0, 20034, 0, 0, 0, 0, 0, -1, 0, 0, 0, 0, 0, 37838, 0, 0, 0, 0, 0, 0],[40701, 29707, 0, 0, 0, 9771, 32420, 0, 46106, 21009, 0, 0, 31946, 0, 0, 12232, 0, 43368, 0, 39807, 0, 0, 31037, 0, 30262, 34632, 0, 22712, 0, 0, 0, 0, 0, 0, 40306, 0, 0, 33544, 26575, 42645, 0, 0, 35417, 0, 0, 0, 0, 0, 0, 0, 0, 16403, 45894, 0, -1, 43391, 30559, 0, 0, 43852, 0, 0, 0, 0, 39499, 28733],[0, 0, 0, 0, 0, 21910, 31120, 33320, 0, 0, 35441, 17870, 0, 0, 0, 0, 0, 0, 0, 0, 1675473917, 0, 0, 0, 0, 0, 31199, 36370, 36548, 0, 0, 0, 45421, 0, 0, 0, 0, 0, 0, 40838, 0, 31940, 27207, 38639, 39163, 39841, 0, 0, 0, 37119, 0, 0, 0, 0, 43391, -1, 0, 0, 0, 37593, 0, 40388, 0, 0, 0, 0],[17124, 0, 0, 0, 0, 0, 0, 0, 0, 0, 0, 0, 0, 0, 0, 0, 0, 0, 32821, 0, 32878, 0, 0, 0, 0, 37517, 0, 0, 0, 0, 0, 0, 42932, 0, 46108, 0, 0, 0, 0, 32611, 0, 0, 0, 0, 0, 0, 0, 0, 0, 17423, 40000, 0, 0, 0, 30559, 0, -1, 37306, 0, 29463, 0, 10550, 32527, 0, 0, 17994],[0, 27971, 40713, 0, 0, 0, 0, 0, 0, 0, 33047, 40562, 45828, 0, 0, 0, 23914, 43881, 11839, 0, 0, 0, 0, 0, 24136, 0, 0, 0, 39539, 0, 0, 0, 23843, 20282, 0, 0, 0, 23056, 0, 0, 0, 0, 0, 40943, 22875, 0, 40099, 0, 0, 15698, 0, 0, 0, 0, 0, 0, 37306, -1, 0, 40995, 0, 0, 0, 0, 0, 0],[43523, 27244, 0, 0, 0, 0, 36699, 32983, 19264, 0, 0, 0, 0, 0, 0, 0, 0, 0, 0, 0, 27980, 0, 0, 0, 0, 0, 0, 0, 37672, 32470, 41991, 0, 42761, 20459, 0, 0, 0, 0, 20669, 0, 0, 0, 45511, 0, 0, 0, 0, 0, 0, 26142, 0, 0, 0, 0, 0, 0, 0, 0, -1, 0, 0, 0, 37891, 0, 0, 0],[0, 0, 0, 28736, 0, 0, 0, 0, 0, 0, 0, 0, 0, 0, 9810, 0, 0, 0, 0, 39358, 0, 0, 42627, 0, 0, 0, 0, 0, 0, 0, 0, 41849, 0, 0, 0, 0, 0, 0, 0, 0, 0, 0, 0, 0, 45404, 0, 0, 0, 0, 45806, 43118, 0, 0, 37838, 43852, 37593, 29463, 40995, 0, -1, 0, 0, 33378, 0, 0, 37728],[6871, 0, 0, 0, 0, 26446, 0, 0, 0, 0, 0, 45944, 0, 20798, 45314, 0, 0, 0, 0, 0, 0, 16675, 31602, 0, 0, 39992, 0, 0, 0, 0, 0, 0, 0, 35291, 42982, 38266, 0, 0, 0, 0, 0, 31218, 0, 0, 0, 0, 0, 0, 28115, 0, 0, 0, 0, 0, 0, 0, 0, 0, 0, 0, -1, 45027, 0, 0, 0, 0],[0, 0, 42828, 21365, 0, 0, 0, 17633, 0, 0, 42005, 0, 0, 39857, 26036, 0, 0, 0, 22526, 0, 0, 0, 44989, 0, 0, 22151, 0, 0, 11478, 39954, 0, 32480, 0, 0, 0, 0, 0, 0, 20575, 0, 0, 27932, 0, 33215, 0, 0, 0, 0, 0, 0, 0, 0, 45071, 0, 0, 40388, 10550, 0, 0, 0, 45027, -1, 0, 0, 0, 0],[0, 0, 0, 0, 0, 0, 0, 0, 0, 0, 0, 30629, 34997, 0, 0, 0, 0, 0, 0, 0, 0, 0, 0, 19794, 0, 0, 5332, 0, 0, 0, 0, 0, 0, 0, 0, 0, 0, 0, 13743, 39490, 0, 0, 0, 0, 0, 42812, 0, 0, 0, 0, 0, 0, 36420, 0, 0, 0, 32527, 0, 37891, 33378, 0, 0, -1, 0, 0, 0],[0, 25702, 24394, 0, 0, 0, 0, 5356, 0, 0, 0, 33406, 0, 0, 20978, 0, 0, 0, 0, 45244, 7122, 0, 10246, 0, 0, 0, 0, 0, 0, 0, 0, 0, 0, 40503, 0, 0, 0, 0, 36546, 0, 0, 24521, 10671, 0, 25792, 0, 0, 0, 0, 28462, 0, 0, 0, 0, 0, 0, 0, 0, 0, 0, 0, 0, 0, -1, 22032, 0],[0, 0, 0, 0, 18190, 40468, 0, 0, 0, 0, 0, 32925, 0, 0, 44982, 0, 0, 8621, 0, 38641, 0, 0, 0, 0, 36682, 0, 39385, 0, 0, 0, 0, 31655, 0, 0, 0, 0, 0, 0, 38911, 0, 24464, 0, 0, 0, 0, 40897, 0, 33567, 0, 0, 0, 0, 28074, 0, 39499, 0, 0, 0, 0, 0, 0, 0, 0, 22032, -1, 0],[0, 0, 36902, 0, 0, 41245, 0, 0, 43291, 0, 0, 0, 0, 0, 24381, 0, 0, 0, 0, 0, 0, 46145, 0, 16244, 0, 44894, 0, 0, 0, 0, 33376, 0, 19983, 0, 0, 36071, 0, 0, 0, 0, 0, 0, 0, 31344, 11590, 0, 26809, 0, 25008, 0, 20171, 40349, 34311, 0, 28733, 0, 17994, 0, 0, 37728, 0, 0, 0, 0, 0, -1]]